Minimize
	value: tt

Subject to
tt + 2000 s_1_1 > 0
tt - t_1_1 - 2000.000000 s_1_1 > -1985.453000
tt + 2000 s_2_1 > 0
tt - t_2_1 - 2000.000000 s_2_1 > -1982.945400
tt + 2000 s_1_2 > 0
tt - t_1_2 - 2000.000000 s_1_2 > -1992.413300
tt + 2000 s_2_2 > 0
tt - t_2_2 - 2000.000000 s_2_2 > -1987.699300
tt + 2000 s_1_3 > 0
tt - t_1_3 - 2000.000000 s_1_3 > -1967.214100
tt + 2000 s_2_3 > 0
tt - t_2_3 - 2000.000000 s_2_3 > -1952.939600
tt + 2000 s_1_4 > 0
tt - t_1_4 - 2000.000000 s_1_4 > -1946.905000
tt + 2000 s_2_4 > 0
tt - t_2_4 - 2000.000000 s_2_4 > -1919.195000
tt + 2000 s_1_5 > 0
tt - t_1_5 - 2130.113371 s_1_5 + 130.113371 s_1_2 > -1999.335200
tt + 2000 s_2_5 > 0
tt - t_2_5 - 2260.226743 s_2_5 + 260.226743 s_2_2 > -1997.794111
s_1_1 + s_2_1  = 1
s_1_2 + s_2_2  = 1
s_1_3 + s_2_3  = 1
s_1_4 + s_2_4  = 1
s_1_5 + s_2_5  = 1
t_1_1 - t_1_2 + 2000.000000 u_1_1_2 > 7.586700
t_1_2 - t_1_1 - 2000.000000 u_1_1_2 > -1985.453000
t_2_1 - t_2_2 + 2000.000000 u_2_1_2 > 12.300700
t_2_2 - t_2_1 - 2000.000000 u_2_1_2 > -1982.945400
t_1_1 - t_1_3 + 2000.000000 u_1_1_3 > 32.785900
t_1_3 - t_1_1 - 2000.000000 u_1_1_3 > -1985.453000
t_2_1 - t_2_3 + 2000.000000 u_2_1_3 > 47.060400
t_2_3 - t_2_1 - 2000.000000 u_2_1_3 > -1982.945400
t_1_1 - t_1_4 + 2000.000000 u_1_1_4 > 53.095000
t_1_4 - t_1_1 - 2000.000000 u_1_1_4 > -1985.453000
t_2_1 - t_2_4 + 2000.000000 u_2_1_4 > 80.805000
t_2_4 - t_2_1 - 2000.000000 u_2_1_4 > -1982.945400
t_1_5 - t_1_1 - 2000.000000 s_1_1 > -1978.644250
t_1_5 - t_2_1 - 2000.000000 s_2_1 > -1969.327900
t_2_5 - t_1_1 - 2000.000000 s_1_1 > -1978.644250
t_2_5 - t_2_1 - 2000.000000 s_2_1 > -1969.327900
t_1_2 - t_1_1 + 2000.000000 u_1_2_1 > 14.547000
t_1_1 - t_1_2 - 2000.000000 u_1_2_1 > -1992.413300
t_2_2 - t_2_1 + 2000.000000 u_2_2_1 > 17.054600
t_2_1 - t_2_2 - 2000.000000 u_2_2_1 > -1987.699300
t_1_2 - t_1_3 + 2000.000000 u_1_2_3 > 32.785900
t_1_3 - t_1_2 - 2000.000000 u_1_2_3 > -1992.413300
t_2_2 - t_2_3 + 2000.000000 u_2_2_3 > 47.060400
t_2_3 - t_2_2 - 2000.000000 u_2_2_3 > -1987.699300
t_1_2 - t_1_4 + 2000.000000 u_1_2_4 > 53.095000
t_1_4 - t_1_2 - 2000.000000 u_1_2_4 > -1992.413300
t_2_2 - t_2_4 + 2000.000000 u_2_2_4 > 80.805000
t_2_4 - t_2_2 - 2000.000000 u_2_2_4 > -1987.699300
t_1_5 - t_1_2 - 2000.000000 s_1_2 > -1985.604550
t_1_5 - t_2_2 - 2000.000000 s_2_2 > -1974.081800
t_2_5 - t_1_2 - 2000.000000 s_1_2 > -1985.604550
t_2_5 - t_2_2 - 2000.000000 s_2_2 > -1974.081800
t_1_3 - t_1_1 + 2000.000000 u_1_3_1 > 14.547000
t_1_1 - t_1_3 - 2000.000000 u_1_3_1 > -1967.214100
t_2_3 - t_2_1 + 2000.000000 u_2_3_1 > 17.054600
t_2_1 - t_2_3 - 2000.000000 u_2_3_1 > -1952.939600
t_1_3 - t_1_2 + 2000.000000 u_1_3_2 > 7.586700
t_1_2 - t_1_3 - 2000.000000 u_1_3_2 > -1967.214100
t_2_3 - t_2_2 + 2000.000000 u_2_3_2 > 12.300700
t_2_2 - t_2_3 - 2000.000000 u_2_3_2 > -1952.939600
t_1_3 - t_1_4 + 2000.000000 u_1_3_4 > 53.095000
t_1_4 - t_1_3 - 2000.000000 u_1_3_4 > -1967.214100
t_2_3 - t_2_4 + 2000.000000 u_2_3_4 > 80.805000
t_2_4 - t_2_3 - 2000.000000 u_2_3_4 > -1952.939600
t_1_5 - t_1_3 - 2000.000000 s_1_3 > -1960.405350
t_1_5 - t_2_3 - 2000.000000 s_2_3 > -1939.322100
t_2_5 - t_1_3 - 2000.000000 s_1_3 > -1960.405350
t_2_5 - t_2_3 - 2000.000000 s_2_3 > -1939.322100
t_1_4 - t_1_1 + 2000.000000 u_1_4_1 > 14.547000
t_1_1 - t_1_4 - 2000.000000 u_1_4_1 > -1946.905000
t_2_4 - t_2_1 + 2000.000000 u_2_4_1 > 17.054600
t_2_1 - t_2_4 - 2000.000000 u_2_4_1 > -1919.195000
t_1_4 - t_1_2 + 2000.000000 u_1_4_2 > 7.586700
t_1_2 - t_1_4 - 2000.000000 u_1_4_2 > -1946.905000
t_2_4 - t_2_2 + 2000.000000 u_2_4_2 > 12.300700
t_2_2 - t_2_4 - 2000.000000 u_2_4_2 > -1919.195000
t_1_4 - t_1_3 + 2000.000000 u_1_4_3 > 32.785900
t_1_3 - t_1_4 - 2000.000000 u_1_4_3 > -1946.905000
t_2_4 - t_2_3 + 2000.000000 u_2_4_3 > 47.060400
t_2_3 - t_2_4 - 2000.000000 u_2_4_3 > -1919.195000
t_1_5 - t_1_4 - 2000.000000 s_1_4 > -1940.096250
t_1_5 - t_2_4 - 2000.000000 s_2_4 > -1905.577500
t_2_5 - t_1_4 - 2000.000000 s_1_4 > -1940.096250
t_2_5 - t_2_4 - 2000.000000 s_2_4 > -1905.577500
t_1_5 - t_1_1 - 2000.000000 s_1_1 > -1978.644250
t_1_5 - t_2_1 - 2000.000000 s_2_1 > -1969.327900
t_2_5 - t_1_1 - 2000.000000 s_1_1 > -1978.644250
t_2_5 - t_2_1 - 2000.000000 s_2_1 > -1969.327900
t_1_5 - t_1_2 - 2000.000000 s_1_2 > -1985.604550
t_1_5 - t_2_2 - 2000.000000 s_2_2 > -1974.081800
t_2_5 - t_1_2 - 2000.000000 s_1_2 > -1985.604550
t_2_5 - t_2_2 - 2000.000000 s_2_2 > -1974.081800
t_1_5 - t_1_3 - 2000.000000 s_1_3 > -1960.405350
t_1_5 - t_2_3 - 2000.000000 s_2_3 > -1939.322100
t_2_5 - t_1_3 - 2000.000000 s_1_3 > -1960.405350
t_2_5 - t_2_3 - 2000.000000 s_2_3 > -1939.322100
t_1_5 - t_1_4 - 2000.000000 s_1_4 > -1940.096250
t_1_5 - t_2_4 - 2000.000000 s_2_4 > -1905.577500
t_2_5 - t_1_4 - 2000.000000 s_1_4 > -1940.096250
t_2_5 - t_2_4 - 2000.000000 s_2_4 > -1905.577500
Binary
s_1_1
s_2_1
s_1_2
s_2_2
s_1_3
s_2_3
s_1_4
s_2_4
s_1_5
s_2_5
u_1_1_2
u_2_1_2
u_1_1_3
u_2_1_3
u_1_1_4
u_2_1_4
u_1_2_1
u_2_2_1
u_1_2_3
u_2_2_3
u_1_2_4
u_2_2_4
u_1_3_1
u_2_3_1
u_1_3_2
u_2_3_2
u_1_3_4
u_2_3_4
u_1_4_1
u_2_4_1
u_1_4_2
u_2_4_2
u_1_4_3
u_2_4_3

End
